&INPUT
outputdir  =  "./data_implicit"

nx = 10                  ! Number of points in X
ny = 1                    ! Number of points in Y
nz = 1                    ! Number of points in Z

dt    = -1D-4              ! Fixed time step value (Set to negative to disable)
tstop = 1.0D-4            ! Physical time to stop the simulation
CFL   = .8D0             ! CFL criterion for calculating the time step (Set to negative to disable)
nsteps = -1               ! Number of time steps before stopping (Set to negative to disable)

tviz = 1D-6            ! Time between visualization dumps (Set to negative to disable)
vizprefix = "plastic_relaxation" ! Prefix for the visualization files

periodicx = .TRUE.       ! Periodic in X?
periodicy = .TRUE.        ! Periodic in Y?
periodicz = .TRUE.        ! Periodic in Z?

derivative_x = "cd10"     ! What derivative to use in X: "cd10", "cd06", "four", "cheb"
derivative_y = "cd10"     ! What derivative to use in Y: "cd10", "cd06", "four", "cheb"
derivative_z = "cd10"     ! What derivative to use in Z: "cd10", "cd06", "four", "cheb"

filter_x = "cf90"         ! What filter to use in X: "cf90", "gaussian", "lstsq", "spectral"
filter_y = "cf90"         ! What filter to use in X: "cf90", "gaussian", "lstsq", "spectral"
filter_z = "cf90"         ! What filter to use in X: "cf90", "gaussian", "lstsq", "spectral"

prow = 0                  ! Number of rows in 2D processor decomposition (set 0 for auto-tuning)
pcol = 0                  ! Number of rows in 2D processor decomposition (set 0 for auto-tuning)

&IINPUT
nu = 0.0D0               ! Kinematic viscosity  !TODO: Check if correct
/

&SINPUT
gam      = 2.84          ! Ratio of specific heats
Rgas     = 1.D0            ! Gas constant
PInf     = 0.6d9            ! P_infinity, material stiffness
shmod    = 0d0            ! Shear modulus
PTeqb    = .TRUE.            ! Yield strength of material
SOSmodel = .FALSE.            ! Yield strength of material
ns       = 1               ! Number of species

Cmu     = 0d0             ! Coefficient for artificial shear viscosity
Cbeta   = 0d0             ! Coefficient for artificial bulk viscosity
Ckap    = 0d0             ! Coefficient for artificial thermal conductivity
Cdiff   = 0d0             ! Coefficient for artificial thermal conductivity
CY      = 0d0             ! Coefficient for artificial thermal conductivity

x_bc1   = 0               ! 0: general, 1: symmetric/anti-symmetric
x_bcn   = 0               ! 0: general, 1: symmetric/anti-symmetric
y_bc1   = 0               ! 0: general, 1: symmetric/anti-symmetric
y_bcn   = 0               ! 0: general, 1: symmetric/anti-symmetric
z_bc1   = 0               ! 0: general, 1: symmetric/anti-symmetric
z_bcn   = 0               ! 0: general, 1: symmetric/anti-symmetric

use_gTg  = .FALSE.          ! Use the symmetric Finger tensor formulation?
        
/

&PROBINPUT
gamma    = 2.84 ! Ratio of specific heats  -- ideal gas
Rgas     = 1.D0           ! Gas constant
mu       = 77d9           ! Shear modulus --gas
rho_0    = 1.D0           ! No deformation density
plastic    = .true.         ! Logical to turn on plasticity
yield      = 2.49d9       ! Yield strength of material
explPlast  = .false.        ! Logical to switch between explicit (T) and implicit (F) plastic update
g_0        = 0.8d0
tau_0      = 1d-8
/
