&INPUT

inputdir  = ""      ! Directory for input files
outputdir = ""      ! Directory for output files

nx = 128                  ! Number of points in X
ny = 128                  ! Number of points in Y
nz = 128                  ! Number of points in Z

dt = 1.0D-2               ! Fixed time step value (Set to negative to disable)
tstop = 10.0D0            ! Physical time to stop the simulation
CFL = 0.5D0               ! CFL criterion for calculating the time step (Set to negative to disable)
nsteps = -1               ! Number of time steps before stopping (Set to negative to disable)

tviz = 5.0D-2             ! Time between visualization dumps (Set to negative to disable)
vizprefix = "RT"          ! Prefix for the visualization files
reduce_precision = .true. ! Reduce precision for I/O?

periodicx = .true.        ! Periodic in X?
periodicy = .true.        ! Periodic in Y?
periodicz = .false.       ! Periodic in Z?

derivative_x = "cd10"     ! What derivative to use in X: "cd10", "cd06", "four", "cheb"
derivative_y = "cd10"     ! What derivative to use in Y: "cd10", "cd06", "four", "cheb"
derivative_z = "cd10"     ! What derivative to use in Z: "cd10", "cd06", "four", "cheb"

filter_x = "cf90"         ! What filter to use in X: "cf90", "gaussian", "lstsq", "spectral"
filter_y = "cf90"         ! What filter to use in X: "cf90", "gaussian", "lstsq", "spectral"
filter_z = "cf90"         ! What filter to use in X: "cf90", "gaussian", "lstsq", "spectral"

prow = 0                  ! Number of rows in 2D processor decomposition (set 0 for auto-tuning)
pcol = 0                  ! Number of rows in 2D processor decomposition (set 0 for auto-tuning)

/

&CINPUT
gam      = 1.4D0                  ! Ratio of specific heats
Rgas     = 1.D0                   ! Gas constant
inviscid = .false.                ! Inviscid simulation?
ns       = 2                      ! Number of species
nrestart = 500                    ! Number of steps between restart dumps
use_nonconservative = .true.      ! Use nonconservative form?
use_skewsym_conv = .true.         ! Use skew symmetric convective form? (not used if conservative).
useLAD = .false.                  ! Apply LAD?
usefilter = .false.               ! Use filter?
usepartfilter = .false.           ! Filter boundary areas?
useforcezone = .false.            ! Save background state for forcing zone?
x_bc1    = 0                      ! Left  X BC (0 => general, 1 => symmetric). Not used if periodic
x_bcn    = 0                      ! Right X BC (0 => general, 1 => symmetric). Not used if periodic
y_bc1    = 0                      ! Left  Y BC (0 => general, 1 => symmetric). Not used if periodic
y_bcn    = 0                      ! Right Y BC (0 => general, 1 => symmetric). Not used if periodic
z_bc1    = 1                      ! Left  Y BC (0 => general, 1 => symmetric). Not used if periodic
z_bcn    = 1                      ! Right Y BC (0 => general, 1 => symmetric). Not used if periodic
Cmu      = 0.0D0                  ! Remove regularization
Cbeta    = 0.0D0                  ! Remove regularization
Ckap     = 0.0D0                  ! Remove regularization
Cdiff    = 0.0D0                  ! Remove regularization
CY       = 0.0D0                  ! Remove regularization
/

&PROBINPUT
! add own problem inputs
/
