&INPUT

inputdir  =  "/home/akshays/Data/PadeOps/ShockEntropy_WCNS_compare/N0100"      ! Directory for input files
outputdir  = "/home/akshays/Data/PadeOps/ShockEntropy_WCNS_compare/N0100"      ! Directory for output files

nx = 100                  ! Number of points in X
ny = 1                    ! Number of points in Y
nz = 1                    ! Number of points in Z

dt = 1.0D-8               ! Fixed time step value (Set to negative to disable)
tstop = 4.0D0             ! Physical time to stop the simulation
CFL = 0.5D0               ! CFL criterion for calculating the time step (Set to negative to disable)
nsteps = -1               ! Number of time steps before stopping (Set to negative to disable)

tviz = 1.0D0              ! Time between visualization dumps (Set to negative to disable)
vizprefix = "ShockEntropy" ! Prefix for the visualization files

periodicx = .FALSE.       ! Periodic in X?
periodicy = .TRUE.        ! Periodic in Y?
periodicz = .TRUE.        ! Periodic in Z?

derivative_x = "cd10"     ! What derivative to use in X: "cd10", "cd06", "four", "cheb"
derivative_y = "cd10"     ! What derivative to use in Y: "cd10", "cd06", "four", "cheb"
derivative_z = "cd10"     ! What derivative to use in Z: "cd10", "cd06", "four", "cheb"

filter_x = "cf90"         ! What filter to use in X: "cf90", "gaussian", "lstsq", "spectral"
filter_y = "cf90"         ! What filter to use in X: "cf90", "gaussian", "lstsq", "spectral"
filter_z = "cf90"         ! What filter to use in X: "cf90", "gaussian", "lstsq", "spectral"

prow = 0                  ! Number of rows in 2D processor decomposition (set 0 for auto-tuning)
pcol = 0                  ! Number of rows in 2D processor decomposition (set 0 for auto-tuning)

/

&CINPUT
gam  = 1.4D0              ! Ratio of specific heats
Rgas = 1.D0               ! Gas constant
/

&IINPUT
nu = 0.02D0               ! Kinematic viscosity
/

&SINPUT
eostype = 1               ! eostype = 1 for StiffenedGas with Separable EOS
eosparams = 1.4D0, 1.D0, 1.D0, 0.D0, 2.49D9, 1.D-10
!           gamma, Rgas, Pinf,shmod,  yield, tau0
rho0    = 1.0D0           ! No deformation density
Cmu     = 2.D-3           ! Coefficient for artificial shear viscosity
Cbeta   = 5.00D0          ! Coefficient for artificial bulk viscosity
Ckap    = 1.D-2           ! Coefficient for artificial thermal conductivity
plastic = .FALSE.         ! Logical to turn on plasticity
/

&PROBINPUT
pRatio   = 1.0D1          ! Pressure Ratio ( p2 / p1 )
p1       = 1.0D-1         ! P_infty / p1
Cbeta    = 5.00D0         ! Coefficient for artificial bulk viscosity
thick    = 1.0D0          ! Initial shock thickness (in multiples of dx)
xs       = -3.5D0
xe       = -3.0D0
ximp     = -10.D0
multiplier_file = '/home/akshays/Data/PadeOps/ShockEntropy_WCNS_compare/Shock-Entropy-StiffGas-MultiMode-rho-multiplier-N0100.txt'
/
