&INPUT

inputdir  =  "/home/akshays/Data/PadeOps/PlasticRelaxation"      ! Directory for input files
outputdir  = "/home/akshays/Data/PadeOps/PlasticRelaxation"      ! Directory for output files

nx = 1                    ! Number of points in X
ny = 1                    ! Number of points in Y
nz = 1                    ! Number of points in Z

dt = 1.0D-6               ! Fixed time step value (Set to negative to disable)
tstop = 1.0D-3            ! Physical time to stop the simulation
CFL = 0.5D0               ! CFL criterion for calculating the time step (Set to negative to disable)
nsteps = -1               ! Number of time steps before stopping (Set to negative to disable)

tviz = 1.0D-5             ! Time between visualization dumps (Set to negative to disable)
vizprefix = "PlasticRelaxation" ! Prefix for the visualization files

periodicx = .TRUE.        ! Periodic in X?
periodicy = .TRUE.        ! Periodic in Y?
periodicz = .TRUE.        ! Periodic in Z?

derivative_x = "cd10"     ! What derivative to use in X: "cd10", "cd06", "four", "cheb"
derivative_y = "cd10"     ! What derivative to use in Y: "cd10", "cd06", "four", "cheb"
derivative_z = "cd10"     ! What derivative to use in Z: "cd10", "cd06", "four", "cheb"

filter_x = "cf90"         ! What filter to use in X: "cf90", "gaussian", "lstsq", "spectral"
filter_y = "cf90"         ! What filter to use in X: "cf90", "gaussian", "lstsq", "spectral"
filter_z = "cf90"         ! What filter to use in X: "cf90", "gaussian", "lstsq", "spectral"

prow = 0                  ! Number of rows in 2D processor decomposition (set 0 for auto-tuning)
pcol = 0                  ! Number of rows in 2D processor decomposition (set 0 for auto-tuning)

/

&CINPUT
gam  = 1.4D0              ! Ratio of specific heats
Rgas = 1.D0               ! Gas constant
/

&IINPUT
nu = 0.02D0               ! Kinematic viscosity
/

&SINPUT
gam       = 2.84D0        ! Ratio of specific heats
Rgas      = 1.D0          ! Gas constant
PInf      = 6.D8          ! P_infinity, material stiffness
shmod     = 77.D9         ! Shear modulus
rho0      = 7.85D3        ! No deformation density
Cmu       = 0.D-3         ! Coefficient for artificial shear viscosity
Cbeta     = 0.D0          ! Coefficient for artificial bulk viscosity
Ckap      = 0.D-2         ! Coefficient for artificial thermal conductivity
plastic   = .TRUE.        ! Logical to turn on plasticity
yield     = 2.49D9        ! Yield strength of material
explPlast = .TRUE.        ! Explicit formulation for plastic sources?
tau0      = 1.0D-6        ! Characteristic plastic relaxation time
/

&PROBINPUT
g0 = 1.0D-1               ! Magnitude of initial stress profile
/
