&INPUT

inputdir  =  "/home/akshays/Data/PadeOps/Multispecies_RM_1D"      ! Directory for input files
outputdir  = "/home/akshays/Data/PadeOps/Multispecies_RM_1D"      ! Directory for output files

nx = 400                  ! Number of points in X
ny = 1                    ! Number of points in Y
nz = 1                    ! Number of points in Z

dt = 1.0D-4               ! Fixed time step value (Set to negative to disable)
tstop = 0.1D0             ! Physical time to stop the simulation
CFL = 0.8D0               ! CFL criterion for calculating the time step (Set to negative to disable)
nsteps = -1               ! Number of time steps before stopping (Set to negative to disable)

tviz = 0.25D-1            ! Time between visualization dumps (Set to negative to disable)
vizprefix = "slidprob1"   ! Prefix for the visualization files

periodicx = .FALSE.       ! Periodic in X?
periodicy = .TRUE.        ! Periodic in Y?
periodicz = .TRUE.        ! Periodic in Z?

derivative_x = "cd10"     ! What derivative to use in X: "cd10", "cd06", "four", "cheb"
derivative_y = "cd10"     ! What derivative to use in Y: "cd10", "cd06", "four", "cheb"
derivative_z = "cd10"     ! What derivative to use in Z: "cd10", "cd06", "four", "cheb"

filter_x = "cf90"         ! What filter to use in X: "cf90", "gaussian", "lstsq", "spectral"
filter_y = "cf90"         ! What filter to use in X: "cf90", "gaussian", "lstsq", "spectral"
filter_z = "cf90"         ! What filter to use in X: "cf90", "gaussian", "lstsq", "spectral"

prow = 0                  ! Number of rows in 2D processor decomposition (set 0 for auto-tuning)
pcol = 0                  ! Number of rows in 2D processor decomposition (set 0 for auto-tuning)

/

&CINPUT
gam  = 1.4D0              ! Ratio of specific heats
Rgas = 1.D0               ! Gas constant
/

&IINPUT
nu = 0.02D0               ! Kinematic viscosity
/

&SINPUT
gam     = 2.84D0          ! Ratio of specific heats
Rgas    = 1.D0            ! Gas constant
PInf    = 1.D0            ! P_infinity, material stiffness
shmod   = 1.D1            ! Shear modulus
PTeqb = .TRUE.            ! Yield strength of material
SOSmodel = .FALSE.            ! Yield strength of material
ns      = 2               ! Number of species
Cmu     = 2.D-3           ! Coefficient for artificial shear viscosity
Cbeta   = 1.D0            ! Coefficient for artificial bulk viscosity
Ckap    = 1.D-2           ! Coefficient for artificial thermal conductivity
Cdiff   = 2.D-4           ! Coefficient for artificial thermal conductivity
CY      = 1.D2           ! Coefficient for artificial thermal conductivity
x_bc1   = 0
x_bcn   = 0
y_bc1   = 0
y_bcn   = 0
z_bc1   = 0
z_bcn   = 0
/

&PROBINPUT
gamma    = 2.84D0         ! Ratio of specific heats  -- copper
Rgas     = 1.D0           ! Gas constant
p_infty  = 1.D0           ! P_infinity, material stiffness
mu       = 10.D0          ! Shear modulus
rho_0    = 1.D0           ! No deformation density
p_amb    = 5.D-2          ! Ambient pressure
rhoRatio = 1.0d0          ! Density ratio
muRatio  = 1.0d0          ! Shear modulus ratio
thick    = 3.0D0          ! Initial thickness of volume fraction discontinuity in grid units
shock_thick = 3.0d0       ! Initial thickness of velocity        discontinuity in grid units
minVF    = 1.0D-6         ! Minimum mass fraction at initialization
shock_init = 0.5D0        ! x location of shock     at t = 0
interface_init = 2.0D0    ! x location of interface at t = 0
normal    = .false.
sliding   = .true.
/
