&INPUT

inputdir  =  "./in_cual"      ! Directory for input files
outputdir  = "./out_cual_2d"    ! Directory for output files

nx = 64 !192 !384 !768                   ! Number of points in X
ny = 64  !32  !64  !128                   ! Number of points in Y
nz = 1                    ! Number of points in Z

dt = 1.0D-6 !4.0D-3 !1.0D-7 !1.0D-4              ! Fixed time step value (Set to negative to disable)
tstop = 1.0d0 !0.1 !10.0D0            ! Physical time to stop the simulation
CFL = 0.8D0               ! CFL criterion for calculating the time step (Set to negative to disable)
nsteps = -1               ! Number of time steps before stopping (Set to negative to disable)

tviz = 1.0D-2 !0.001 !0.25D-1   ! Time between visualization dumps (Set to negative to disable)
vizprefix = "Multispecies_KH"   ! Prefix for the visualization files

periodicx = .FALSE.       ! Periodic in X?
periodicy = .TRUE.        ! Periodic in Y?
periodicz = .TRUE.        ! Periodic in Z?

derivative_x = "cd10"     ! What derivative to use in X: "cd10", "cd06", "four", "cheb"
derivative_y = "cd10"     ! What derivative to use in Y: "cd10", "cd06", "four", "cheb"
derivative_z = "cd10"     ! What derivative to use in Z: "cd10", "cd06", "four", "cheb"

filter_x = "cf90"         ! What filter to use in X: "cf90", "gaussian", "lstsq", "spectral"
filter_y = "cf90"         ! What filter to use in X: "cf90", "gaussian", "lstsq", "spectral"
filter_z = "cf90"         ! What filter to use in X: "cf90", "gaussian", "lstsq", "spectral"

prow = 1 !32 !56 !32 !8                  ! Number of rows in 2D processor decomposition (set 0 for auto-tuning)
pcol = 1                  ! Number of rows in 2D processor decomposition (set 0 for auto-tuning)
/

&CINPUT
gam  = 1.4D0              ! Ratio of specific heats
Rgas = 1.D0               ! Gas constant
/

&IINPUT
nu = 0.02D0               ! Kinematic viscosity
/

&SINPUT
surface_mask       = .FALSE.
use_FV		   = .FALSE.
use_gradphi 	   = .FALSE.
use_gradVF         = .TRUE.
use_surfaceTension = .TRUE.
intSharp          = .TRUE.   ! Include interface sharpening terms
intSharp_spf      = .FALSE.   ! Use Shukla-Pantano-Freund method - not in divergence form
intSharp_cpg      = .TRUE.         ! Include coupling with kinematic eqn
intSharp_cpg_west = .FALSE.   ! Jacob's version of kinematic coupling
intSharp_ufv      = .TRUE.      ! Use second order finite volume for sharpening term
intSharp_msk      = .FALSE.      ! Mask FV diffusion - no diffusion outside interface region
intSharp_eps = 3.125D-2  ! 1.5625D-2 !3.125D-2 !1.5625D-2 !7.8125D-3 !3.90625D-3 !1.95313D-3 !32-64-128-256-512        ! Interface sharpening epsilon parameter
surfaceTension_coeff = 10
intSharp_cpl = .TRUE.      ! Include coupling with momentum/energy eqns
intSharp_d02 = .TRUE.      ! Use second order
intSharp_flt = .FALSE.     ! Use dealliasing filter for interface sharpening terms
intSharp_gam = -2.0        ! Interface sharpening Gamma parameter
intSharp_cut = 1.0D-6      ! Interface sharpening VF cutoff parameter -- should = minVF
intSharp_dif = 1.D0        ! Interface sharpening VF out of bounds diffusion
intSharp_flp = .FALSE.     ! Filter pressure
intSharp_pfloor = 1.D-12    ! Pressure floor in relaxation algorithm / LAD (LAD deprecated)
intSharp_tfloor = 0.0      ! Temperature floor in LAD (LAD deprecated)
useOneG = .FALSE.	   ! Use mixture g formulation
use_gTg  = .FALSE.         ! Use the symmetric Finger tensor formulation?
strainHard = .FALSE.    ! Solve the equations for strain hardening
cnsrv_g  = .FALSE.         ! Use the conservative form for ge equations
cnsrv_gt = .FALSE.         ! Use the conservative form for gt equations
cnsrv_gp = .FALSE.         ! Use the conservative form for gp equations
cnsrv_pe = .FALSE.         ! Use the conservative form for pe equations
Cdiff_g  = 0.1             ! Coefficient for artificial g_e diffusivity
Cdiff_gt = 1.0 !0.1             ! Coefficient for artificial g_t diffusivity
Cdiff_gp = 1.0 !0.1             ! Coefficient for artificial g_p diffusivity
Cdiff_pe = 1.0             ! Coefficient for artificial pe diffusivity
gam      = 1.4D0           ! Ratio of specific heats
Rgas     = 1.D0            ! Gas constant
PInf     = 1.D0            ! P_infinity, material stiffness
shmod    = 1.D1            ! Shear modulus
PTeqb    = .TRUE.          ! Pressure/temperature equilibrium model
SOSmodel = .FALSE.         ! Speed of sound model
ns       = 2               ! Number of species
useOneG = .FALSE.	   ! Use mixture g formulation
use_gTg  = .FALSE.         ! Use the symmetric Finger tensor formulation?
Cmu      = 2.D-3           ! Coefficient for artificial shear viscosity
Cbeta    = 5.D0            ! Coefficient for artificial bulk viscosity
Ckap     = 1.D-2           ! Coefficient for artificial thermal conductivity
Cdiff    = 3.D-3           ! Coefficient for artificial material diffusivity
CY       = 1.D2            ! Coefficient for artificial material diffusivity
x_bc1    = 0
x_bcn    = 0
y_bc1    = 0
y_bcn    = 0
z_bc1    = 0
z_bcn    = 0
phys_mu1   = 1d-3 !physical dynamic viscosity
phys_mu2   = 1.82d-5 !physical dynamic viscosity
phys_bulk1 = 0.0d0 !physical bulk viscosity
phys_bulk2 = 0.0d0 !physical bulk viscosity
phys_kap1  = 0.0d0 !physical thermal conductivity
phys_kap2  = 0.0d0 !physical thermal conductivity
/

&PROBINPUT
p_mu = 1d-3
p_mu2 = 1.82d-5
gamma    = 2.0D0          ! Ratio of specific heats  -- copper
Rgas     = 1.D0           ! Gas constant
p_infty  = 1.D0           ! P_infinity, material stiffness
mu       = 0.2886D0       ! Shear modulus
rho_0    = 1.D0           ! No deformation density
p_amb    = 20D0          ! Ambient pressure
minVF    = 1.0D-6         ! Minimum mass fraction at initialization
thick    = 2.0d0          ! Initial thickness in grid units for interface
gamma_2    = 2.088D0      ! Ratio of specific heats   -- aluminium
Rgas_2     = 1.D0         ! Gas constant
p_infty_2  = 0.5047D0     ! P_infinity, material stiffness
mu_2       = 0.1985D0     ! Shear modulus
rho_0_2    = 0.3037D0     ! No deformation density
plastic    = .TRUE.       ! Logical to turn on plasticity
yield      = 8.79d-4      !9.33d-4 !8.79d-4 !1.758d-3 3.516d-3 7.032d-3        ! Yield strength of material
explPlast  = .FALSE.        ! Logical to switch between explicit (F) and implicit (T) plastic update
plastic2   = .TRUE.         ! Logical to turn on plasticity
yield2     = 2.176d-3 !2.473d-3 !2.176d-3 !4.352d-3 8.704d-3 1.7408d-2      ! Yield strength of material
explPlast2 = .FALSE.        ! Logical to switch between explicit (F) and implicit (T) plastic update
interface_init = 0.5d0     ! x location of interface at t = 0
kwave = 2.0D0          ! x location of shock at t  = 0
v0   =  0.1d0
v0_2 = -0.1d0
eta0k = 0.4d0
etasize = 10
ksize = 10
delta = 0.05
delta_d = 0.005
/
