&INPUT

inputdir  =  "/home/akshays/PadeOps/taylorgreen_sgrid"      ! Directory for input files
outputdir  = "/home/akshays/PadeOps/taylorgreen_sgrid"      ! Directory for output files

nx = 64                   ! Number of points in X
ny = 64                   ! Number of points in Y
nz = 64                   ! Number of points in Z

dt = -1.0D-8              ! Fixed time step value (Set to negative to disable)
tstop = 2.5D0             ! Physical time to stop the simulation
CFL = 0.7D0               ! CFL criterion for calculating the time step (Set to negative to disable)
nsteps = -1               ! Number of time steps before stopping (Set to negative to disable)

tviz = 1.0D0              ! Time between visualization dumps (Set to negative to disable)
vizprefix = "taylorgreen" ! Prefix for the visualization files

periodicx = .TRUE.        ! Periodic in X?
periodicy = .TRUE.        ! Periodic in Y?
periodicz = .TRUE.        ! Periodic in Z?

derivative_x = "cd10"     ! What derivative to use in X: "cd10", "cd06", "four", "cheb"
derivative_y = "cd10"     ! What derivative to use in Y: "cd10", "cd06", "four", "cheb"
derivative_z = "cd10"     ! What derivative to use in Z: "cd10", "cd06", "four", "cheb"

filter_x = "cf90"         ! What filter to use in X: "cf90", "gaussian", "lstsq", "spectral"
filter_y = "cf90"         ! What filter to use in X: "cf90", "gaussian", "lstsq", "spectral"
filter_z = "cf90"         ! What filter to use in X: "cf90", "gaussian", "lstsq", "spectral"

prow = 0                  ! Number of rows in 2D processor decomposition (set 0 for auto-tuning)
pcol = 0                  ! Number of rows in 2D processor decomposition (set 0 for auto-tuning)

/

&CINPUT
gam  = 1.4D0              ! Ratio of specific heats
Rgas = 1.D0               ! Gas constant
/

&IINPUT
nu = 0.02D0               ! Kinematic viscosity
/

&SINPUT
rho0      = 1.0D0           ! No deformation density
eostype   = 1               ! Type of EOS to use 1 => Separable EOS
eosparams = (/1.4D0, 1.D0, 0.D0, 0.D0, 2.49D9, 1.D-10/)
                            ! (/gamma, Rgas, Pinf, shmod, yield, tau0 /)
Cmu       = 2.D-3           ! Coefficient for artificial shear viscosity
Cbeta     = 1.75D0          ! Coefficient for artificial bulk viscosity
Ckap      = 1.D-2           ! Coefficient for artificial thermal conductivity
plastic   = .FALSE.         ! Logical to turn on plasticity
Re_num    = 100.D0          ! Reynolds number
Pr_num    = 1.D0            ! Prandtl number
/

&PROBINPUT
Re        = 100.D0          ! Reynolds number
/
