&INPUT

inputdir  =  "/home/akshays/Data/PadeOps/ContactDiscont/steel_Ckap0p01"      ! Directory for input files
outputdir  = "/home/akshays/Data/PadeOps/ContactDiscont/steel_Ckap0p01"      ! Directory for output files

nx = 201                  ! Number of points in X
ny = 1                    ! Number of points in Y
nz = 1                    ! Number of points in Z

dt = 1.0D-8               ! Fixed time step value (Set to negative to disable)
tstop = 1.D-1             ! Physical time to stop the simulation
CFL = 0.5D0               ! CFL criterion for calculating the time step (Set to negative to disable)
nsteps = -1               ! Number of time steps before stopping (Set to negative to disable)

tviz = 1.0D-3             ! Time between visualization dumps (Set to negative to disable)
vizprefix = "ContactDiscont" ! Prefix for the visualization files

periodicx = .FALSE.       ! Periodic in X?
periodicy = .TRUE.        ! Periodic in Y?
periodicz = .TRUE.        ! Periodic in Z?

derivative_x = "cd10"     ! What derivative to use in X: "cd10", "cd06", "four", "cheb"
derivative_y = "cd10"     ! What derivative to use in Y: "cd10", "cd06", "four", "cheb"
derivative_z = "cd10"     ! What derivative to use in Z: "cd10", "cd06", "four", "cheb"

filter_x = "cf90"         ! What filter to use in X: "cf90", "gaussian", "lstsq", "spectral"
filter_y = "cf90"         ! What filter to use in X: "cf90", "gaussian", "lstsq", "spectral"
filter_z = "cf90"         ! What filter to use in X: "cf90", "gaussian", "lstsq", "spectral"

prow = 0                  ! Number of rows in 2D processor decomposition (set 0 for auto-tuning)
pcol = 0                  ! Number of rows in 2D processor decomposition (set 0 for auto-tuning)

/

&CINPUT
gam  = 1.4D0              ! Ratio of specific heats
Rgas = 1.D0               ! Gas constant
/

&IINPUT
nu = 0.02D0               ! Kinematic viscosity
/

&SINPUT
rho0      = 7.85D3        ! No deformation density
eostype   = 1             ! Type of EOS to use 1 => Separable EOS
eosparams = 2.84D0, 1.D0, 6.D10, 77.D9, 2.49D9, 1.D-10
                          ! (/gamma, Rgas, Pinf, shmod, yield, tau0 /)
Cmu       = 2.D-3         ! Coefficient for artificial shear viscosity
Cbeta     = 5.00D0        ! Coefficient for artificial bulk viscosity
Ckap      = 1.D-2         ! Coefficient for artificial thermal conductivity
plastic   = .FALSE.       ! Logical to turn on plasticity
/

&PROBINPUT
kparam   = 1.0D1          ! Pressure Ratio ( p2 / p1 )
p2       = 1.0D5          ! P_infty / p1
Ckap     = 0.01D0         ! Coefficient for artificial bulk viscosity
thick    = 1.0D0          ! Initial shock thickness (in multiples of dx)
/
