&INPUT

!inputdir  =  "/home/akshays/Data/PadeOps/Multispecies_shock_gTg"      ! Directory for input files
!outputdir  = "/home/akshays/Data/PadeOps/Multispecies_shock_gTg"      ! Directory for output files
inputdir  = "/home/songhang/codes/PadeOps/problems/solids/Multispecies_shock_files"
outputdir = "/home/songhang/codes/PadeOps/problems/solids/Multispecies_shock_files/output"

nx = 201                  ! Number of points in X
ny = 1                    ! Number of points in Y
nz = 1                    ! Number of points in Z

dt = 1.0D-4               ! Fixed time step value (Set to negative to disable)
tstop = 2.0D0             ! Physical time to stop the simulation
CFL =  0.5D0              ! CFL criterion for calculating the time step (Set to negative to disable)
nsteps = -1               ! Number of time steps before stopping (Set to negative to disable)

tviz = 1.0D-1             ! Time between visualization dumps (Set to negative to disable)
vizprefix = "Multispecies_shock" ! Prefix for the visualization files

periodicx = .FALSE.       ! Periodic in X?
periodicy = .TRUE.        ! Periodic in Y?
periodicz = .TRUE.        ! Periodic in Z?

derivative_x = "cd10"     ! What derivative to use in X: "cd10", "cd06", "four", "cheb"
derivative_y = "cd10"     ! What derivative to use in Y: "cd10", "cd06", "four", "cheb"
derivative_z = "cd10"     ! What derivative to use in Z: "cd10", "cd06", "four", "cheb"

filter_x = "cf90"         ! What filter to use in X: "cf90", "gaussian", "lstsq", "spectral"
filter_y = "cf90"         ! What filter to use in X: "cf90", "gaussian", "lstsq", "spectral"
filter_z = "cf90"         ! What filter to use in X: "cf90", "gaussian", "lstsq", "spectral"

prow = 0                  ! Number of rows in 2D processor decomposition (set 0 for auto-tuning)
pcol = 0                  ! Number of rows in 2D processor decomposition (set 0 for auto-tuning)

/

&CINPUT
gam  = 1.4D0              ! Ratio of specific heats
Rgas = 1.D0               ! Gas constant
/

&IINPUT
nu = 0.02D0               ! Kinematic viscosity
/

&SINPUT
gam      = 1.4D0           ! Ratio of specific heats
Rgas     = 1.D0            ! Gas constant
PInf     = 1.D0            ! P_infinity, material stiffness
shmod    = 1.D1            ! Shear modulus
Cmu      = 2.D-3           ! Coefficient for artificial shear viscosity
Cbeta    = 5.D0            ! Coefficient for artificial bulk viscosity
Ckap     = 1.D-2           ! Coefficient for artificial thermal conductivity
Cdiff    = 3.D-3           ! Coefficient for artificial diffusivity
CY       = 1.D2            ! Coefficient for artificial diffusivity (bounds control)
ns       = 2               ! Number of species
use_gTg  = .TRUE.          ! Use the symmetric Finger tensor formulation?
PTeqb    = .TRUE.          ! Enforce pressure and temperature equilibrium between species
SOSmodel = .FALSE.         ! TRUE => equilibrium model, FALSE => frozen model [Saurel et. al. 2009]

x_bcn    = 1
/

&PROBINPUT
gamma     = 1.4D0          ! Ratio of specific heats
Rgas      = 1.D0           ! Gas constant
p_infty   = 1.D0           ! P_infinity, material stiffness
mu        = 1.D1           ! Shear modulus
rho_0     = 1.D0           ! No deformation density
rhoRatio  = 1.D1           ! Density ratio
p_amb     = 1.D-1          ! Ambient pressure
minVF     = 1.0D-6         ! Minimum mass fraction at initialization
pRatio    = 2.0D0          ! Pressure ratio
thick     = 3.0D0          ! Initial thickness in grid units for interface

interface_init = 2.D0      ! Initial interface location

plastic   = .FALSE.        ! Turn on plasticity for material 1?
plastic2  = .FALSE.        ! Turn on plasticity for material 2?
/
